c b=7,c=319
p cnf 23 256
2 3 4 5 6 7 -14 0
1 3 4 5 6 7 -15 0
1 2 4 5 6 7 -16 0
1 2 3 5 6 7 -17 0
1 2 3 4 6 7 -18 0
1 2 3 4 5 7 -19 0
3 4 7 -22 0
2 3 4 5 6 -7 14 0
2 -7 15 0
1 2 3 -7 16 0
1 3 4 -7 17 0
1 2 4 5 -7 18 0
1 2 3 5 6 -7 19 0
1 4 5 -7 22 0
1 2 3 4 5 6 -13 0
1 2 3 4 5 6 -20 0
2 5 6 -21 0
1 -6 7 14 0
1 4 5 7 -20 0
1 -6 -7 -14 0
1 4 5 -6 -7 20 0
1 2 3 4 5 -6 13 0
1 2 -6 15 0
1 2 3 -6 16 0
1 3 4 -6 17 0
1 2 4 5 -6 18 0
1 2 3 5 -6 -19 0
1 4 5 -6 21 0
1 2 3 4 5 -12 0
1 4 5 -23 0
1 -5 7 14 0
3 4 -5 7 20 0
2 3 6 7 -21 0
1 -5 -7 -14 0
3 4 -5 -7 -20 0
-5 6 -7 21 0
6 -7 22 0
-5 6 13 0
3 4 -5 6 -19 0
6 -23 0
3 4 -6 7 21 0
7 -23 0
-5 -6 -7 -21 0
-5 -6 -7 23 0
-5 -6 -13 0
3 4 -5 -6 19 0
3 4 -5 -6 -22 0
1 2 3 4 -5 12 0
1 2 -5 15 0
1 2 3 -5 16 0
1 3 4 -5 17 0
1 2 4 -5 -18 0
1 2 3 4 -11 0
1 -4 7 14 0
1 2 5 6 7 -20 0
5 7 -22 0
1 -4 -7 -14 0
1 2 -4 5 6 -7 20 0
-4 6 13 0
2 3 -4 6 19 0
-4 5 -6 7 20 0
5 -6 7 21 0
-4 5 -6 -7 -20 0
2 -4 5 -7 -21 0
-4 -6 -7 23 0
-4 -6 -13 0
2 3 -4 -6 -19 0
-4 5 -6 -22 0
-4 5 12 0
2 3 -4 5 -18 0
2 3 -5 6 7 20 0
2 3 -4 -5 7 -21 0
6 7 -22 0
2 3 -5 6 -7 -20 0
-4 -5 -6 7 -20 0
-4 -5 -6 7 22 0
-4 -5 -6 -7 20 0
-4 -6 -7 -22 0
-4 -5 -6 -21 0
-4 -5 -12 0
2 3 -4 -5 18 0
1 2 3 -4 11 0
1 2 -4 15 0
1 2 3 -4 16 0
1 3 -4 -17 0
1 2 3 -10 0
1 -3 7 14 0
1 -3 -7 -14 0
1 -3 4 5 -7 20 0
-3 6 13 0
1 -3 4 5 6 -19 0
-3 -6 -13 0
1 -3 4 5 -6 19 0
-3 5 12 0
1 2 -3 5 18 0
4 -5 6 7 20 0
-3 4 -5 7 -21 0
4 -5 6 -7 -20 0
-3 4 -5 6 19 0
1 -3 4 -6 7 -20 0
-3 -5 -6 7 22 0
1 -3 4 -6 -7 20 0
1 2 -5 -6 -7 -22 0
-3 4 -5 -6 -19 0
-3 -5 -6 -21 0
-3 -5 -12 0
1 2 -3 -5 -18 0
-3 4 11 0
1 2 -3 4 -17 0
1 2 -3 -4 6 7 -20 0
1 2 -3 -4 6 -7 20 0
1 2 -4 5 6 19 0
1 2 -4 5 -6 -19 0
-3 -4 -5 7 -20 0
-3 -4 -5 -7 20 0
-3 -4 -5 6 -19 0
-3 -4 -5 6 21 0
-3 -4 -5 -6 19 0
-3 -4 -11 0
1 2 -3 -4 17 0
1 2 -3 10 0
1 2 -3 15 0
1 2 -3 -16 0
1 2 -9 0
1 -2 7 14 0
1 -2 -7 -14 0
1 -2 4 5 -7 20 0
-2 6 13 0
-2 3 4 6 -19 0
3 5 6 -21 0
-2 -6 -13 0
-2 3 4 -6 19 0
-2 5 12 0
-2 3 4 5 -18 0
3 4 6 7 -21 0
-2 -5 -12 0
-2 3 4 -5 18 0
-2 4 11 0
1 -2 4 17 0
-2 3 -4 6 7 -20 0
-2 3 -4 6 -7 20 0
3 -4 5 6 19 0
3 -4 5 -7 -21 0
3 -4 5 -6 -19 0
-2 3 -4 5 18 0
-2 -4 -5 7 -20 0
-2 -4 -5 -7 20 0
-2 3 -5 6 -19 0
-2 -4 -5 6 21 0
-2 3 -5 -6 19 0
-2 3 -4 -5 -18 0
-2 -4 -11 0
1 -2 -4 -17 0
-2 3 10 0
1 -2 3 -16 0
1 -2 -3 5 6 -19 0
4 5 6 -21 0
1 -2 -3 5 -6 19 0
1 -3 4 5 18 0
-3 -5 -6 -7 -22 0
1 -3 4 -5 -18 0
-2 -3 -4 5 7 20 0
5 6 7 -21 0
-2 -3 -4 5 -7 -20 0
-2 -3 -4 6 -7 21 0
-2 -3 -4 6 -19 0
-2 -3 -4 -6 -7 -21 0
-2 -3 -4 -6 19 0
-2 -3 -4 5 -18 0
-2 -3 -4 -5 18 0
-2 -3 -10 0
1 -2 -3 16 0
1 -2 9 0
1 -2 -15 0
1 -8 0
-1 7 -14 0
-1 2 7 -15 0
-1 3 7 16 0
2 4 5 7 -20 0
-1 -7 14 0
-1 2 3 -7 -16 0
-1 2 4 5 -7 20 0
2 4 5 -7 22 0
-1 6 13 0
-1 3 4 6 -19 0
-1 -6 -13 0
-1 3 4 -6 19 0
2 4 5 -6 21 0
-1 5 12 0
-1 2 3 5 -18 0
2 4 5 -23 0
-1 -5 -12 0
-1 2 3 -5 18 0
-1 4 11 0
-1 2 3 4 -17 0
2 3 5 6 7 -20 0
-1 2 3 5 6 -7 20 0
-1 -4 -11 0
-1 2 3 -4 17 0
-1 3 10 0
-1 -3 7 -16 0
-1 2 -3 4 7 17 0
-1 2 -3 -7 16 0
-1 2 4 -7 -17 0
-1 2 4 5 6 -19 0
-1 2 4 5 -6 19 0
2 -3 4 5 18 0
2 -3 4 -6 7 -20 0
2 -3 4 -6 -7 20 0
2 -3 4 -5 -18 0
-1 2 -3 -4 7 -17 0
-1 2 -4 5 7 -18 0
-1 -3 -4 6 7 -19 0
-1 2 -4 -7 17 0
2 -3 5 -7 18 0
2 -4 5 6 -7 19 0
-1 2 -3 -4 5 6 20 0
-1 -3 -4 -6 7 19 0
-1 -3 -4 5 7 20 0
2 -4 5 -6 -7 -19 0
-1 2 -4 -5 7 18 0
2 -3 -5 -7 -18 0
-1 -3 -10 0
-1 2 9 0
-1 -2 7 15 0
3 4 5 7 -20 0
-2 -7 -15 0
-1 3 4 5 -7 20 0
3 4 5 -7 22 0
3 4 5 -6 21 0
-1 -2 4 5 -18 0
3 4 5 -23 0
-1 -2 4 -5 18 0
-2 3 4 17 0
-2 3 -4 -17 0
-1 -2 3 16 0
4 5 6 7 -20 0
-1 4 5 6 -7 20 0
-1 -2 -3 4 6 19 0
-1 -2 -3 5 -6 7 20 0
-1 -2 -3 5 -6 -7 -20 0
-1 -2 -3 4 5 -7 -21 0
-1 -2 -3 -6 -7 23 0
-1 -2 -3 4 -6 -19 0
-1 -2 -3 5 -6 -22 0
-1 -2 -3 5 -18 0
-1 -2 -3 -5 -6 7 -20 0
-1 -2 -3 -5 -6 -7 20 0
-1 -2 -3 -6 -7 -22 0
-1 -2 -3 -5 18 0
-1 -2 -3 4 -17 0
-1 -2 -3 -6 -7 -21 0
-1 -2 -3 -4 17 0
-1 -2 -3 -16 0
-1 -2 -9 0
-1 8 0
